(set-info :smt-lib-version 2.6)
(set-logic UF)
(set-info :source |Benchmarks from the paper: "Extending Sledgehammer with SMT Solvers" by Jasmin Blanchette, Sascha Bohme, and Lawrence C. Paulson, CADE 2011.  Translated to SMT2 by Andrew Reynolds and Morgan Deters.|)
(set-info :category "industrial")
(set-info :status unknown)
(declare-sort S1 0)
(declare-sort S2 0)
(declare-sort S3 0)
(declare-sort S4 0)
(declare-sort S5 0)
(declare-sort S6 0)
(declare-sort S7 0)
(declare-sort S8 0)
(declare-sort S9 0)
(declare-sort S10 0)
(declare-sort S11 0)
(declare-sort S12 0)
(declare-sort S13 0)
(declare-sort S14 0)
(declare-sort S15 0)
(declare-sort S16 0)
(declare-sort S17 0)
(declare-fun f1 () S1)
(declare-fun f2 () S1)
(declare-fun f3 (S2 S3) S1)
(declare-fun f4 (S4 S2) S2)
(declare-fun f5 (S5 S6) S4)
(declare-fun f6 () S5)
(declare-fun f7 (S7 S8) S6)
(declare-fun f8 () S7)
(declare-fun f9 () S8)
(declare-fun f10 (S9 S2) S4)
(declare-fun f11 () S9)
(declare-fun f12 (S10 S6) S2)
(declare-fun f13 () S10)
(declare-fun f14 () S6)
(declare-fun f15 (S11 S8) S2)
(declare-fun f16 () S11)
(declare-fun f17 () S8)
(declare-fun f18 (S3) S3)
(declare-fun f19 (S12 S13) S3)
(declare-fun f20 (S8) S12)
(declare-fun f21 () S8)
(declare-fun f22 () S13)
(declare-fun f23 (S14 S15) S1)
(declare-fun f24 (S8 S8 S2) S14)
(declare-fun f25 () S8)
(declare-fun f26 (S13) S15)
(declare-fun f27 (S8 S16) S1)
(declare-fun f28 () S16)
(declare-fun f29 (S13 S17) S1)
(declare-fun f30 () S17)
(assert (not (= f1 f2)))
(assert (not (=> (= (f3 (f4 (f5 f6 (f7 f8 f9)) (f4 (f10 f11 (f12 f13 f14)) (f15 f16 f17))) (f18 (f19 (f20 f21) f22))) f1) (exists ((?v0 S2)) (let ((?v_0 (f10 f11 (f12 f13 f14)))) (= (f23 (f24 f25 f17 (f4 (f5 f6 (f7 f8 f17)) (f4 (f10 f11 ?v0) (f4 (f10 f11 (f15 f16 f9)) (f4 ?v_0 (f4 (f5 f6 (f7 f8 f9)) (f4 ?v_0 (f15 f16 f17)))))))) (f26 f22)) f1))))))
(assert (not (= (f27 f9 f28) f1)))
(assert (= (f29 f22 f30) f1))
(assert (forall ((?v0 S13) (?v1 S8)) (=> (= (f29 ?v0 f30) f1) (= (= (f3 (f12 f13 (f7 f8 ?v1)) (f18 (f19 (f20 f21) ?v0))) f1) (= (f27 ?v1 f28) f1)))))
(assert (forall ((?v0 S8) (?v1 S2) (?v2 S8) (?v3 S6) (?v4 S2) (?v5 S13)) (let ((?v_0 (f4 (f5 f6 (f7 f8 ?v0)) (f4 (f10 f11 ?v1) (f4 (f10 f11 (f15 f16 ?v2)) (f4 (f10 f11 (f12 f13 ?v3)) ?v4)))))) (=> (= (f3 ?v_0 (f18 (f19 (f20 f21) ?v5))) f1) (=> (not (= (f27 ?v0 f28) f1)) (=> (= (f29 ?v5 f30) f1) (= (f23 (f24 f25 ?v0 ?v_0) (f26 ?v5)) f1)))))))
(assert (forall ((?v0 S8) (?v1 S2) (?v2 S2) (?v3 S2) (?v4 S2) (?v5 S13)) (=> (= (f23 (f24 f25 ?v0 (f4 (f5 f6 (f7 f8 ?v0)) (f4 (f10 f11 ?v1) (f4 (f10 f11 ?v2) (f4 (f10 f11 ?v3) ?v4))))) (f26 ?v5)) f1) (= (f3 ?v3 (f18 (f19 (f20 f21) ?v5))) f1))))
(assert (forall ((?v0 S8) (?v1 S2) (?v2 S8) (?v3 S6) (?v4 S2) (?v5 S13) (?v6 S8) (?v7 S2) (?v8 S8) (?v9 S2)) (let ((?v_0 (f10 f11 (f12 f13 ?v3))) (?v_1 (f26 ?v5))) (=> (= (f23 (f24 f25 ?v0 (f4 (f5 f6 (f7 f8 ?v0)) (f4 (f10 f11 ?v1) (f4 (f10 f11 (f15 f16 ?v2)) (f4 ?v_0 ?v4))))) ?v_1) f1) (=> (= (f23 (f24 f25 ?v6 (f4 (f5 f6 (f7 f8 ?v6)) (f4 (f10 f11 ?v7) (f4 (f10 f11 (f15 f16 ?v8)) (f4 ?v_0 ?v9))))) ?v_1) f1) (=> (= (f29 ?v5 f30) f1) (and (= ?v0 ?v6) (and (= ?v1 ?v7) (and (= ?v2 ?v8) (= ?v4 ?v9))))))))))
(assert (forall ((?v0 S8) (?v1 S8) (?v2 S6) (?v3 S2) (?v4 S2) (?v5 S2) (?v6 S2) (?v7 S13)) (=> (= (f23 (f24 ?v0 ?v1 (f4 (f5 f6 ?v2) (f4 (f10 f11 ?v3) (f4 (f10 f11 ?v4) (f4 (f10 f11 ?v5) ?v6))))) (f26 ?v7)) f1) (= (f3 ?v6 (f18 (f19 (f20 f21) ?v7))) f1))))
(assert (forall ((?v0 S8) (?v1 S13)) (=> (= (f27 ?v0 f28) f1) (= (f3 (f12 f13 (f7 f8 ?v0)) (f19 (f20 f21) ?v1)) f1))))
(assert (forall ((?v0 S8) (?v1 S13)) (= (f3 (f12 f13 (f7 f8 ?v0)) (f19 (f20 ?v0) ?v1)) f1)))
(assert (= (f27 f21 f28) f1))
(assert (forall ((?v0 S8) (?v1 S8) (?v2 S2) (?v3 S13)) (=> (= (f23 (f24 ?v0 ?v1 ?v2) (f26 ?v3)) f1) (=> (=> (= (f3 ?v2 (f18 (f19 (f20 f21) ?v3))) f1) false) false))))
(assert (forall ((?v0 S2) (?v1 S2) (?v2 S3)) (let ((?v_0 (f18 ?v2))) (=> (= (f3 (f4 (f10 f11 ?v0) ?v1) ?v_0) f1) (=> (=> (= (f3 ?v0 ?v_0) f1) (=> (= (f3 ?v1 ?v_0) f1) false)) false)))))
(assert (forall ((?v0 S8) (?v1 S8) (?v2 S2) (?v3 S13)) (=> (= (f23 (f24 ?v0 ?v1 ?v2) (f26 ?v3)) f1) (= (f3 ?v2 (f19 (f20 f21) ?v3)) f1))))
(assert (forall ((?v0 S8) (?v1 S8) (?v2 S2) (?v3 S13)) (=> (= (f23 (f24 ?v0 ?v1 ?v2) (f26 ?v3)) f1) (= (f3 ?v2 (f19 (f20 ?v0) ?v3)) f1))))
(assert (forall ((?v0 S2) (?v1 S3)) (=> (= (f3 ?v0 ?v1) f1) (= (f3 ?v0 (f18 ?v1)) f1))))
(assert (not (= (f27 f25 f28) f1)))
(assert (not (= f21 f25)))
(assert (not (= f25 f21)))
(assert (forall ((?v0 S8) (?v1 S6) (?v2 S2)) (not (= (f15 f16 ?v0) (f4 (f5 f6 ?v1) ?v2)))))
(assert (forall ((?v0 S2) (?v1 S2) (?v2 S2) (?v3 S2)) (= (= (f4 (f10 f11 ?v0) ?v1) (f4 (f10 f11 ?v2) ?v3)) (and (= ?v0 ?v2) (= ?v1 ?v3)))))
(assert (forall ((?v0 S6) (?v1 S6)) (= (= (f12 f13 ?v0) (f12 f13 ?v1)) (= ?v0 ?v1))))
(assert (forall ((?v0 S2) (?v1 S3)) (let ((?v_0 (f18 ?v1))) (=> (= (f3 ?v0 (f18 ?v_0)) f1) (= (f3 ?v0 ?v_0) f1)))))
(assert (forall ((?v0 S3)) (let ((?v_0 (f18 ?v0))) (= (f18 ?v_0) ?v_0))))
(assert (forall ((?v0 S6) (?v1 S2) (?v2 S6) (?v3 S2)) (= (= (f4 (f5 f6 ?v0) ?v1) (f4 (f5 f6 ?v2) ?v3)) (and (= ?v0 ?v2) (= ?v1 ?v3)))))
(assert (forall ((?v0 S8) (?v1 S8)) (= (= (f15 f16 ?v0) (f15 f16 ?v1)) (= ?v0 ?v1))))
(assert (forall ((?v0 S8) (?v1 S8) (?v2 S2) (?v3 S8) (?v4 S8) (?v5 S2)) (= (= (f24 ?v0 ?v1 ?v2) (f24 ?v3 ?v4 ?v5)) (and (= ?v0 ?v3) (and (= ?v1 ?v4) (= ?v2 ?v5))))))
(assert (forall ((?v0 S8) (?v1 S8)) (= (= (f7 f8 ?v0) (f7 f8 ?v1)) (= ?v0 ?v1))))
(assert (forall ((?v0 S2) (?v1 S2) (?v2 S6)) (not (= (f4 (f10 f11 ?v0) ?v1) (f12 f13 ?v2)))))
(assert (forall ((?v0 S6) (?v1 S2) (?v2 S2)) (not (= (f12 f13 ?v0) (f4 (f10 f11 ?v1) ?v2)))))
(assert (forall ((?v0 S2) (?v1 S2) (?v2 S3)) (let ((?v_0 (f18 ?v2))) (=> (= (f3 (f4 (f10 f11 ?v0) ?v1) ?v_0) f1) (= (f3 ?v1 ?v_0) f1)))))
(assert (forall ((?v0 S2) (?v1 S2) (?v2 S3)) (let ((?v_0 (f18 ?v2))) (=> (= (f3 (f4 (f10 f11 ?v0) ?v1) ?v_0) f1) (= (f3 ?v0 ?v_0) f1)))))
(assert (forall ((?v0 S2) (?v1 S2) (?v2 S6) (?v3 S2)) (not (= (f4 (f10 f11 ?v0) ?v1) (f4 (f5 f6 ?v2) ?v3)))))
(assert (forall ((?v0 S6) (?v1 S2) (?v2 S2) (?v3 S2)) (not (= (f4 (f5 f6 ?v0) ?v1) (f4 (f10 f11 ?v2) ?v3)))))
(assert (forall ((?v0 S6) (?v1 S2) (?v2 S6)) (not (= (f4 (f5 f6 ?v0) ?v1) (f12 f13 ?v2)))))
(check-sat)
(exit)
